tests = {"bilde","chess","euclid","fpp11","fpp17","gapa","gapb"};
datFiles = [{"benchmark_data/BildeKrarup/B/B1.1_new","benchmark_data/BildeKrarup/B/B1.10_new","benchmark_data/BildeKrarup/B/B1.2_new","benchmark_data/BildeKrarup/B/B1.3_new","benchmark_data/BildeKrarup/B/B1.4_new","benchmark_data/BildeKrarup/B/B1.5_new","benchmark_data/BildeKrarup/B/B1.6_new","benchmark_data/BildeKrarup/B/B1.7_new","benchmark_data/BildeKrarup/B/B1.8_new","benchmark_data/BildeKrarup/B/B1.9_new","benchmark_data/BildeKrarup/C/C1.1_new","benchmark_data/BildeKrarup/C/C1.10_new","benchmark_data/BildeKrarup/C/C1.2_new","benchmark_data/BildeKrarup/C/C1.3_new","benchmark_data/BildeKrarup/C/C1.4_new","benchmark_data/BildeKrarup/C/C1.5_new","benchmark_data/BildeKrarup/C/C1.6_new","benchmark_data/BildeKrarup/C/C1.7_new","benchmark_data/BildeKrarup/C/C1.8_new","benchmark_data/BildeKrarup/C/C1.9_new","benchmark_data/BildeKrarup/Dq/1/D1.1_new","benchmark_data/BildeKrarup/Dq/1/D1.10_new","benchmark_data/BildeKrarup/Dq/1/D1.2_new","benchmark_data/BildeKrarup/Dq/1/D1.3_new","benchmark_data/BildeKrarup/Dq/1/D1.4_new","benchmark_data/BildeKrarup/Dq/1/D1.5_new","benchmark_data/BildeKrarup/Dq/1/D1.6_new","benchmark_data/BildeKrarup/Dq/1/D1.7_new","benchmark_data/BildeKrarup/Dq/1/D1.8_new","benchmark_data/BildeKrarup/Dq/1/D1.9_new","benchmark_data/BildeKrarup/Dq/2/D2.1_new","benchmark_data/BildeKrarup/Dq/2/D2.10_new","benchmark_data/BildeKrarup/Dq/2/D2.2_new","benchmark_data/BildeKrarup/Dq/2/D2.3_new","benchmark_data/BildeKrarup/Dq/2/D2.4_new","benchmark_data/BildeKrarup/Dq/2/D2.5_new","benchmark_data/BildeKrarup/Dq/2/D2.6_new","benchmark_data/BildeKrarup/Dq/2/D2.7_new","benchmark_data/BildeKrarup/Dq/2/D2.8_new","benchmark_data/BildeKrarup/Dq/2/D2.9_new","benchmark_data/BildeKrarup/Dq/3/D3.1_new","benchmark_data/BildeKrarup/Dq/3/D3.10_new","benchmark_data/BildeKrarup/Dq/3/D3.2_new","benchmark_data/BildeKrarup/Dq/3/D3.3_new","benchmark_data/BildeKrarup/Dq/3/D3.4_new","benchmark_data/BildeKrarup/Dq/3/D3.5_new","benchmark_data/BildeKrarup/Dq/3/D3.6_new","benchmark_data/BildeKrarup/Dq/3/D3.7_new","benchmark_data/BildeKrarup/Dq/3/D3.8_new","benchmark_data/BildeKrarup/Dq/3/D3.9_new","benchmark_data/BildeKrarup/Dq/4/D4.1_new","benchmark_data/BildeKrarup/Dq/4/D4.10_new","benchmark_data/BildeKrarup/Dq/4/D4.2_new","benchmark_data/BildeKrarup/Dq/4/D4.3_new","benchmark_data/BildeKrarup/Dq/4/D4.4_new","benchmark_data/BildeKrarup/Dq/4/D4.5_new","benchmark_data/BildeKrarup/Dq/4/D4.6_new","benchmark_data/BildeKrarup/Dq/4/D4.7_new","benchmark_data/BildeKrarup/Dq/4/D4.8_new","benchmark_data/BildeKrarup/Dq/4/D4.9_new","benchmark_data/BildeKrarup/Dq/5/D5.1_new","benchmark_data/BildeKrarup/Dq/5/D5.10_new","benchmark_data/BildeKrarup/Dq/5/D5.2_new","benchmark_data/BildeKrarup/Dq/5/D5.3_new","benchmark_data/BildeKrarup/Dq/5/D5.4_new","benchmark_data/BildeKrarup/Dq/5/D5.5_new","benchmark_data/BildeKrarup/Dq/5/D5.6_new","benchmark_data/BildeKrarup/Dq/5/D5.7_new","benchmark_data/BildeKrarup/Dq/5/D5.8_new","benchmark_data/BildeKrarup/Dq/5/D5.9_new","benchmark_data/BildeKrarup/Dq/6/D6.1_new","benchmark_data/BildeKrarup/Dq/6/D6.10_new","benchmark_data/BildeKrarup/Dq/6/D6.2_new","benchmark_data/BildeKrarup/Dq/6/D6.3_new","benchmark_data/BildeKrarup/Dq/6/D6.4_new","benchmark_data/BildeKrarup/Dq/6/D6.5_new","benchmark_data/BildeKrarup/Dq/6/D6.6_new","benchmark_data/BildeKrarup/Dq/6/D6.7_new","benchmark_data/BildeKrarup/Dq/6/D6.8_new","benchmark_data/BildeKrarup/Dq/6/D6.9_new","benchmark_data/BildeKrarup/Dq/7/D7.1_new","benchmark_data/BildeKrarup/Dq/7/D7.10_new","benchmark_data/BildeKrarup/Dq/7/D7.2_new","benchmark_data/BildeKrarup/Dq/7/D7.3_new","benchmark_data/BildeKrarup/Dq/7/D7.4_new","benchmark_data/BildeKrarup/Dq/7/D7.5_new","benchmark_data/BildeKrarup/Dq/7/D7.6_new","benchmark_data/BildeKrarup/Dq/7/D7.7_new","benchmark_data/BildeKrarup/Dq/7/D7.8_new","benchmark_data/BildeKrarup/Dq/7/D7.9_new","benchmark_data/BildeKrarup/Dq/8/D8.1_new","benchmark_data/BildeKrarup/Dq/8/D8.10_new","benchmark_data/BildeKrarup/Dq/8/D8.2_new","benchmark_data/BildeKrarup/Dq/8/D8.3_new","benchmark_data/BildeKrarup/Dq/8/D8.4_new","benchmark_data/BildeKrarup/Dq/8/D8.5_new","benchmark_data/BildeKrarup/Dq/8/D8.6_new","benchmark_data/BildeKrarup/Dq/8/D8.7_new","benchmark_data/BildeKrarup/Dq/8/D8.8_new","benchmark_data/BildeKrarup/Dq/8/D8.9_new","benchmark_data/BildeKrarup/Dq/9/D9.1_new","benchmark_data/BildeKrarup/Dq/9/D9.10_new","benchmark_data/BildeKrarup/Dq/9/D9.2_new","benchmark_data/BildeKrarup/Dq/9/D9.3_new","benchmark_data/BildeKrarup/Dq/9/D9.4_new","benchmark_data/BildeKrarup/Dq/9/D9.5_new","benchmark_data/BildeKrarup/Dq/9/D9.6_new","benchmark_data/BildeKrarup/Dq/9/D9.7_new","benchmark_data/BildeKrarup/Dq/9/D9.8_new","benchmark_data/BildeKrarup/Dq/9/D9.9_new","benchmark_data/BildeKrarup/Dq/10/D10.1_new","benchmark_data/BildeKrarup/Dq/10/D10.10_new","benchmark_data/BildeKrarup/Dq/10/D10.2_new","benchmark_data/BildeKrarup/Dq/10/D10.3_new","benchmark_data/BildeKrarup/Dq/10/D10.4_new","benchmark_data/BildeKrarup/Dq/10/D10.5_new","benchmark_data/BildeKrarup/Dq/10/D10.6_new","benchmark_data/BildeKrarup/Dq/10/D10.7_new","benchmark_data/BildeKrarup/Dq/10/D10.8_new","benchmark_data/BildeKrarup/Dq/10/D10.9_new","benchmark_data/BildeKrarup/Eq/1/E1.1_new","benchmark_data/BildeKrarup/Eq/1/E1.10_new","benchmark_data/BildeKrarup/Eq/1/E1.2_new","benchmark_data/BildeKrarup/Eq/1/E1.3_new","benchmark_data/BildeKrarup/Eq/1/E1.4_new","benchmark_data/BildeKrarup/Eq/1/E1.5_new","benchmark_data/BildeKrarup/Eq/1/E1.6_new","benchmark_data/BildeKrarup/Eq/1/E1.7_new","benchmark_data/BildeKrarup/Eq/1/E1.8_new","benchmark_data/BildeKrarup/Eq/1/E1.9_new","benchmark_data/BildeKrarup/Eq/2/E2.1_new","benchmark_data/BildeKrarup/Eq/2/E2.10_new","benchmark_data/BildeKrarup/Eq/2/E2.2_new","benchmark_data/BildeKrarup/Eq/2/E2.3_new","benchmark_data/BildeKrarup/Eq/2/E2.4_new","benchmark_data/BildeKrarup/Eq/2/E2.5_new","benchmark_data/BildeKrarup/Eq/2/E2.6_new","benchmark_data/BildeKrarup/Eq/2/E2.7_new","benchmark_data/BildeKrarup/Eq/2/E2.8_new","benchmark_data/BildeKrarup/Eq/2/E2.9_new","benchmark_data/BildeKrarup/Eq/3/E3.1_new","benchmark_data/BildeKrarup/Eq/3/E3.10_new","benchmark_data/BildeKrarup/Eq/3/E3.2_new","benchmark_data/BildeKrarup/Eq/3/E3.3_new","benchmark_data/BildeKrarup/Eq/3/E3.4_new","benchmark_data/BildeKrarup/Eq/3/E3.5_new","benchmark_data/BildeKrarup/Eq/3/E3.6_new","benchmark_data/BildeKrarup/Eq/3/E3.7_new","benchmark_data/BildeKrarup/Eq/3/E3.8_new","benchmark_data/BildeKrarup/Eq/3/E3.9_new","benchmark_data/BildeKrarup/Eq/4/E4.1_new","benchmark_data/BildeKrarup/Eq/4/E4.10_new","benchmark_data/BildeKrarup/Eq/4/E4.2_new","benchmark_data/BildeKrarup/Eq/4/E4.3_new","benchmark_data/BildeKrarup/Eq/4/E4.4_new","benchmark_data/BildeKrarup/Eq/4/E4.5_new","benchmark_data/BildeKrarup/Eq/4/E4.6_new","benchmark_data/BildeKrarup/Eq/4/E4.7_new","benchmark_data/BildeKrarup/Eq/4/E4.8_new","benchmark_data/BildeKrarup/Eq/4/E4.9_new","benchmark_data/BildeKrarup/Eq/5/E5.1_new","benchmark_data/BildeKrarup/Eq/5/E5.10_new","benchmark_data/BildeKrarup/Eq/5/E5.2_new","benchmark_data/BildeKrarup/Eq/5/E5.3_new","benchmark_data/BildeKrarup/Eq/5/E5.4_new","benchmark_data/BildeKrarup/Eq/5/E5.5_new","benchmark_data/BildeKrarup/Eq/5/E5.6_new","benchmark_data/BildeKrarup/Eq/5/E5.7_new","benchmark_data/BildeKrarup/Eq/5/E5.8_new","benchmark_data/BildeKrarup/Eq/5/E5.9_new","benchmark_data/BildeKrarup/Eq/6/E6.1_new","benchmark_data/BildeKrarup/Eq/6/E6.10_new","benchmark_data/BildeKrarup/Eq/6/E6.2_new","benchmark_data/BildeKrarup/Eq/6/E6.3_new","benchmark_data/BildeKrarup/Eq/6/E6.4_new","benchmark_data/BildeKrarup/Eq/6/E6.5_new","benchmark_data/BildeKrarup/Eq/6/E6.6_new","benchmark_data/BildeKrarup/Eq/6/E6.7_new","benchmark_data/BildeKrarup/Eq/6/E6.8_new","benchmark_data/BildeKrarup/Eq/6/E6.9_new","benchmark_data/BildeKrarup/Eq/7/E7.1_new","benchmark_data/BildeKrarup/Eq/7/E7.10_new","benchmark_data/BildeKrarup/Eq/7/E7.2_new","benchmark_data/BildeKrarup/Eq/7/E7.3_new","benchmark_data/BildeKrarup/Eq/7/E7.4_new","benchmark_data/BildeKrarup/Eq/7/E7.5_new","benchmark_data/BildeKrarup/Eq/7/E7.6_new","benchmark_data/BildeKrarup/Eq/7/E7.7_new","benchmark_data/BildeKrarup/Eq/7/E7.8_new","benchmark_data/BildeKrarup/Eq/7/E7.9_new","benchmark_data/BildeKrarup/Eq/8/E8.1_new","benchmark_data/BildeKrarup/Eq/8/E8.10_new","benchmark_data/BildeKrarup/Eq/8/E8.2_new","benchmark_data/BildeKrarup/Eq/8/E8.3_new","benchmark_data/BildeKrarup/Eq/8/E8.4_new","benchmark_data/BildeKrarup/Eq/8/E8.5_new","benchmark_data/BildeKrarup/Eq/8/E8.6_new","benchmark_data/BildeKrarup/Eq/8/E8.7_new","benchmark_data/BildeKrarup/Eq/8/E8.8_new","benchmark_data/BildeKrarup/Eq/8/E8.9_new","benchmark_data/BildeKrarup/Eq/9/E9.1_new","benchmark_data/BildeKrarup/Eq/9/E9.10_new","benchmark_data/BildeKrarup/Eq/9/E9.2_new","benchmark_data/BildeKrarup/Eq/9/E9.3_new","benchmark_data/BildeKrarup/Eq/9/E9.4_new","benchmark_data/BildeKrarup/Eq/9/E9.5_new","benchmark_data/BildeKrarup/Eq/9/E9.6_new","benchmark_data/BildeKrarup/Eq/9/E9.7_new","benchmark_data/BildeKrarup/Eq/9/E9.8_new","benchmark_data/BildeKrarup/Eq/9/E9.9_new","benchmark_data/BildeKrarup/Eq/10/E10.1_new","benchmark_data/BildeKrarup/Eq/10/E10.10_new","benchmark_data/BildeKrarup/Eq/10/E10.2_new","benchmark_data/BildeKrarup/Eq/10/E10.3_new","benchmark_data/BildeKrarup/Eq/10/E10.4_new","benchmark_data/BildeKrarup/Eq/10/E10.5_new","benchmark_data/BildeKrarup/Eq/10/E10.6_new","benchmark_data/BildeKrarup/Eq/10/E10.7_new","benchmark_data/BildeKrarup/Eq/10/E10.8_new","benchmark_data/BildeKrarup/Eq/10/E10.9_new"}, {"benchmark_data/Chess/1034ChessS.txt_new","benchmark_data/Chess/1134ChessS.txt_new","benchmark_data/Chess/1234ChessS.txt_new","benchmark_data/Chess/1334ChessS.txt_new","benchmark_data/Chess/1434ChessS.txt_new","benchmark_data/Chess/1534ChessS.txt_new","benchmark_data/Chess/1634ChessS.txt_new","benchmark_data/Chess/1734ChessS.txt_new","benchmark_data/Chess/1834ChessS.txt_new","benchmark_data/Chess/1934ChessS.txt_new","benchmark_data/Chess/2034ChessS.txt_new","benchmark_data/Chess/2134ChessS.txt_new","benchmark_data/Chess/2234ChessS.txt_new","benchmark_data/Chess/2334ChessS.txt_new","benchmark_data/Chess/2434ChessS.txt_new","benchmark_data/Chess/2534ChessS.txt_new","benchmark_data/Chess/2634ChessS.txt_new","benchmark_data/Chess/2734ChessS.txt_new","benchmark_data/Chess/2834ChessS.txt_new","benchmark_data/Chess/2934ChessS.txt_new","benchmark_data/Chess/3034ChessS.txt_new","benchmark_data/Chess/3134ChessS.txt_new","benchmark_data/Chess/3234ChessS.txt_new","benchmark_data/Chess/334ChessS.txt_new","benchmark_data/Chess/434ChessS.txt_new","benchmark_data/Chess/534ChessS.txt_new","benchmark_data/Chess/634ChessS.txt_new","benchmark_data/Chess/734ChessS.txt_new","benchmark_data/Chess/834ChessS.txt_new","benchmark_data/Chess/934ChessS.txt_new"}, {"benchmark_data/Euclid/1011EuclS.txt_new","benchmark_data/Euclid/1111EuclS.txt_new","benchmark_data/Euclid/111EuclS.txt_new","benchmark_data/Euclid/1211EuclS.txt_new","benchmark_data/Euclid/1311EuclS.txt_new","benchmark_data/Euclid/1411EuclS.txt_new","benchmark_data/Euclid/1511EuclS.txt_new","benchmark_data/Euclid/1611EuclS.txt_new","benchmark_data/Euclid/1711EuclS.txt_new","benchmark_data/Euclid/1811EuclS.txt_new","benchmark_data/Euclid/1911EuclS.txt_new","benchmark_data/Euclid/2011EuclS.txt_new","benchmark_data/Euclid/2111EuclS.txt_new","benchmark_data/Euclid/211EuclS.txt_new","benchmark_data/Euclid/2211EuclS.txt_new","benchmark_data/Euclid/2311EuclS.txt_new","benchmark_data/Euclid/2411EuclS.txt_new","benchmark_data/Euclid/2511EuclS.txt_new","benchmark_data/Euclid/2611EuclS.txt_new","benchmark_data/Euclid/2711EuclS.txt_new","benchmark_data/Euclid/2811EuclS.txt_new","benchmark_data/Euclid/2911EuclS.txt_new","benchmark_data/Euclid/3011EuclS.txt_new","benchmark_data/Euclid/311EuclS.txt_new","benchmark_data/Euclid/411EuclS.txt_new","benchmark_data/Euclid/511EuclS.txt_new","benchmark_data/Euclid/611EuclS.txt_new","benchmark_data/Euclid/711EuclS.txt_new","benchmark_data/Euclid/811EuclS.txt_new","benchmark_data/Euclid/911EuclS.txt_new"}, {"benchmark_data/Fpp11/10FPP_11S.txt_new","benchmark_data/Fpp11/11FPP_11S.txt_new","benchmark_data/Fpp11/12FPP_11S.txt_new","benchmark_data/Fpp11/13FPP_11S.txt_new","benchmark_data/Fpp11/14FPP_11S.txt_new","benchmark_data/Fpp11/15FPP_11S.txt_new","benchmark_data/Fpp11/16FPP_11S.txt_new","benchmark_data/Fpp11/17FPP_11S.txt_new","benchmark_data/Fpp11/18FPP_11S.txt_new","benchmark_data/Fpp11/19FPP_11S.txt_new","benchmark_data/Fpp11/1FPP_11S.txt_new","benchmark_data/Fpp11/20FPP_11S.txt_new","benchmark_data/Fpp11/21FPP_11S.txt_new","benchmark_data/Fpp11/22FPP_11S.txt_new","benchmark_data/Fpp11/23FPP_11S.txt_new","benchmark_data/Fpp11/24FPP_11S.txt_new","benchmark_data/Fpp11/25FPP_11S.txt_new","benchmark_data/Fpp11/26FPP_11S.txt_new","benchmark_data/Fpp11/27FPP_11S.txt_new","benchmark_data/Fpp11/28FPP_11S.txt_new","benchmark_data/Fpp11/29FPP_11S.txt_new","benchmark_data/Fpp11/2FPP_11S.txt_new","benchmark_data/Fpp11/30FPP_11S.txt_new","benchmark_data/Fpp11/3FPP_11S.txt_new","benchmark_data/Fpp11/4FPP_11S.txt_new","benchmark_data/Fpp11/5FPP_11S.txt_new","benchmark_data/Fpp11/6FPP_11S.txt_new","benchmark_data/Fpp11/7FPP_11S.txt_new","benchmark_data/Fpp11/8FPP_11S.txt_new","benchmark_data/Fpp11/9FPP_11S.txt_new"}, {"benchmark_data/Fpp17/10FPP_17S.txt_new","benchmark_data/Fpp17/11FPP_17S.txt_new","benchmark_data/Fpp17/12FPP_17S.txt_new","benchmark_data/Fpp17/13FPP_17S.txt_new","benchmark_data/Fpp17/14FPP_17S.txt_new","benchmark_data/Fpp17/15FPP_17S.txt_new","benchmark_data/Fpp17/16FPP_17S.txt_new","benchmark_data/Fpp17/17FPP_17S.txt_new","benchmark_data/Fpp17/18FPP_17S.txt_new","benchmark_data/Fpp17/19FPP_17S.txt_new","benchmark_data/Fpp17/1FPP_17S.txt_new","benchmark_data/Fpp17/20FPP_17S.txt_new","benchmark_data/Fpp17/21FPP_17S.txt_new","benchmark_data/Fpp17/22FPP_17S.txt_new","benchmark_data/Fpp17/23FPP_17S.txt_new","benchmark_data/Fpp17/24FPP_17S.txt_new","benchmark_data/Fpp17/25FPP_17S.txt_new","benchmark_data/Fpp17/26FPP_17S.txt_new","benchmark_data/Fpp17/27FPP_17S.txt_new","benchmark_data/Fpp17/28FPP_17S.txt_new","benchmark_data/Fpp17/29FPP_17S.txt_new","benchmark_data/Fpp17/2FPP_17S.txt_new","benchmark_data/Fpp17/30FPP_17S.txt_new","benchmark_data/Fpp17/3FPP_17S.txt_new","benchmark_data/Fpp17/4FPP_17S.txt_new","benchmark_data/Fpp17/5FPP_17S.txt_new","benchmark_data/Fpp17/6FPP_17S.txt_new","benchmark_data/Fpp17/7FPP_17S.txt_new","benchmark_data/Fpp17/8FPP_17S.txt_new","benchmark_data/Fpp17/9FPP_17S.txt_new"}, {"benchmark_data/GapA/1032GapAS.txt_new","benchmark_data/GapA/1132GapAS.txt_new","benchmark_data/GapA/1232GapAS.txt_new","benchmark_data/GapA/1332GapAS.txt_new","benchmark_data/GapA/1432GapAS.txt_new","benchmark_data/GapA/1532GapAS.txt_new","benchmark_data/GapA/1632GapAS.txt_new","benchmark_data/GapA/1732GapAS.txt_new","benchmark_data/GapA/1832GapAS.txt_new","benchmark_data/GapA/1932GapAS.txt_new","benchmark_data/GapA/2032GapAS.txt_new","benchmark_data/GapA/2132GapAS.txt_new","benchmark_data/GapA/2232GapAS.txt_new","benchmark_data/GapA/2332GapAS.txt_new","benchmark_data/GapA/2432GapAS.txt_new","benchmark_data/GapA/2532GapAS.txt_new","benchmark_data/GapA/2632GapAS.txt_new","benchmark_data/GapA/2732GapAS.txt_new","benchmark_data/GapA/2832GapAS.txt_new","benchmark_data/GapA/2932GapAS.txt_new","benchmark_data/GapA/3032GapAS.txt_new","benchmark_data/GapA/3132GapAS.txt_new","benchmark_data/GapA/3232GapAS.txt_new","benchmark_data/GapA/332GapAS.txt_new","benchmark_data/GapA/432GapAS.txt_new","benchmark_data/GapA/532GapAS.txt_new","benchmark_data/GapA/632GapAS.txt_new","benchmark_data/GapA/732GapAS.txt_new","benchmark_data/GapA/832GapAS.txt_new","benchmark_data/GapA/932GapAS.txt_new"}, {"benchmark_data/GapB/1031GapBS.txt_new","benchmark_data/GapB/1131GapBS.txt_new","benchmark_data/GapB/1231GapBS.txt_new","benchmark_data/GapB/1331GapBS.txt_new","benchmark_data/GapB/1431GapBS.txt_new","benchmark_data/GapB/1531GapBS.txt_new","benchmark_data/GapB/1631GapBS.txt_new","benchmark_data/GapB/1731GapBS.txt_new","benchmark_data/GapB/1831GapBS.txt_new","benchmark_data/GapB/1931GapBS.txt_new","benchmark_data/GapB/2031GapBS.txt_new","benchmark_data/GapB/2131GapBS.txt_new","benchmark_data/GapB/2231GapBS.txt_new","benchmark_data/GapB/2331GapBS.txt_new","benchmark_data/GapB/2431GapBS.txt_new","benchmark_data/GapB/2531GapBS.txt_new","benchmark_data/GapB/2631GapBS.txt_new","benchmark_data/GapB/2731GapBS.txt_new","benchmark_data/GapB/2831GapBS.txt_new","benchmark_data/GapB/2931GapBS.txt_new","benchmark_data/GapB/3031GapBS.txt_new","benchmark_data/GapB/3131GapBS.txt_new","benchmark_data/GapB/3231GapBS.txt_new","benchmark_data/GapB/331GapBS.txt_new","benchmark_data/GapB/431GapBS.txt_new","benchmark_data/GapB/531GapBS.txt_new","benchmark_data/GapB/631GapBS.txt_new","benchmark_data/GapB/731GapBS.txt_new","benchmark_data/GapB/831GapBS.txt_new","benchmark_data/GapB/931GapBS.txt_new"}];
